n_machines = 3;
n_resources = 4;
n_jobs = 35;
horizon = 1509;
LB = 503;
n_jobs_per_resource = [11, 7, 6, 11];
duration = [21, 39, 11, 65, 28, 81, 40, 24, 25, 99, 11, 80, 65, 18, 72, 18, 58, 49, 21, 11, 37, 58, 63, 76, 21, 9, 42, 6, 96, 25, 81, 57, 35, 57, 10]